     Program PWSCF v.7.2 starts on  2Jun2023 at 13:47:37

     Waiting for input...
     Reading input from standard input

     Current dimensions of program PWSCF are:
     Max number of different atomic species (ntypx) = 10
     Max number of k-points (npk) =  40000
     Max angular momentum in pseudopotentials (lmaxx) =  4
     Found identity + ( -0.5000 -0.5000  0.0000) symmetry
     This is a supercell, fractional translations are disabled

     Subspace diagonalization in iterative solution of the eigenvalue problem:
     a serial algorithm will be used

     Using Slab Decomposition

     bravais-lattice index     =            8
     lattice parameter (alat)  =      10.2600  a.u.
     unit-cell volume          =    1080.0456 (a.u.)^3
     number of atoms/cell      =            8
     number of atomic types    =            1
     number of electrons       =        32.00
     number of Kohn-Sham states=           32
     kinetic-energy cutoff     =      15.0000  Ry
     charge density cutoff     =      60.0000  Ry
     scf convergence threshold =      1.0E-10
     mixing beta               =       0.5000
     number of iterations used =            8  plain     mixing
     Exchange-correlation= PBE
                           (   1   4   3   4   0   0   0)

     celldm(1)=  10.260000  celldm(2)=   1.000000  celldm(3)=   1.000000
     celldm(4)=   0.000000  celldm(5)=   0.000000  celldm(6)=   0.000000

     crystal axes: (cart. coord. in units of alat)
               a(1) = (   1.000000   0.000000   0.000000 )
               a(2) = (   0.000000   1.000000   0.000000 )
               a(3) = (   0.000000   0.000000   1.000000 )

     reciprocal axes: (cart. coord. in units 2 pi/alat)
               b(1) = (  1.000000  0.000000  0.000000 )
               b(2) = (  0.000000  1.000000  0.000000 )
               b(3) = (  0.000000  0.000000  1.000000 )

     PseudoPot. # 1 for Si read from file:
     ../../pseudos/Si.pbe-n-rrkjus_psl.1.0.0.UPF
     MD5 check sum: 0b0bb1205258b0d07b9f9672cf965d36
     Pseudo is Ultrasoft + core correction, Zval =  4.0
     Generated using "atomic" code by A. Dal Corso  v.5.1
     Using radial grid of 1141 points,  6 beta functions with:
                l(1) =   0
                l(2) =   0
                l(3) =   1
                l(4) =   1
                l(5) =   2
                l(6) =   2
     Q(r) pseudized with 0 coefficients

     atomic species   valence    mass     pseudopotential
        Si             4.00    14.00000     Si( 1.00)

     No symmetry found

   Cartesian axes

     site n.     atom                  positions (alat units)
         1           Si  tau(   1) = (   0.0000000   0.0000000   0.0000000  )
         2           Si  tau(   2) = (   0.5000000   0.5000000   0.0000000  )
         3           Si  tau(   3) = (   0.0000000   0.5000000   0.5000000  )
         4           Si  tau(   4) = (   0.5000000   0.0000000   0.5000000  )
         5           Si  tau(   5) = (   0.2500000   0.2500000   0.2500000  )
         6           Si  tau(   6) = (   0.7500000   0.7500000   0.2500000  )
         7           Si  tau(   7) = (   0.7500000   0.2500000   0.7500000  )
         8           Si  tau(   8) = (   0.2500000   0.7500000   0.7500000  )

     number of k points=    32
                       cart. coord. in units 2pi/alat
        k(    1) = (   0.1250000   0.1250000   0.1250000), wk =   0.0625000
        k(    2) = (   0.1250000   0.1250000   0.3750000), wk =   0.0625000
        k(    3) = (   0.1250000   0.1250000  -0.3750000), wk =   0.0625000
        k(    4) = (   0.1250000   0.1250000  -0.1250000), wk =   0.0625000
        k(    5) = (   0.1250000   0.3750000   0.1250000), wk =   0.0625000
        k(    6) = (   0.1250000   0.3750000   0.3750000), wk =   0.0625000
        k(    7) = (   0.1250000   0.3750000  -0.3750000), wk =   0.0625000
        k(    8) = (   0.1250000   0.3750000  -0.1250000), wk =   0.0625000
        k(    9) = (   0.1250000  -0.3750000   0.1250000), wk =   0.0625000
        k(   10) = (   0.1250000  -0.3750000   0.3750000), wk =   0.0625000
        k(   11) = (   0.1250000  -0.3750000  -0.3750000), wk =   0.0625000
        k(   12) = (   0.1250000  -0.3750000  -0.1250000), wk =   0.0625000
        k(   13) = (   0.1250000  -0.1250000   0.1250000), wk =   0.0625000
        k(   14) = (   0.1250000  -0.1250000   0.3750000), wk =   0.0625000
        k(   15) = (   0.1250000  -0.1250000  -0.3750000), wk =   0.0625000
        k(   16) = (   0.1250000  -0.1250000  -0.1250000), wk =   0.0625000
        k(   17) = (   0.3750000   0.1250000   0.1250000), wk =   0.0625000
        k(   18) = (   0.3750000   0.1250000   0.3750000), wk =   0.0625000
        k(   19) = (   0.3750000   0.1250000  -0.3750000), wk =   0.0625000
        k(   20) = (   0.3750000   0.1250000  -0.1250000), wk =   0.0625000
        k(   21) = (   0.3750000   0.3750000   0.1250000), wk =   0.0625000
        k(   22) = (   0.3750000   0.3750000   0.3750000), wk =   0.0625000
        k(   23) = (   0.3750000   0.3750000  -0.3750000), wk =   0.0625000
        k(   24) = (   0.3750000   0.3750000  -0.1250000), wk =   0.0625000
        k(   25) = (   0.3750000  -0.3750000   0.1250000), wk =   0.0625000
        k(   26) = (   0.3750000  -0.3750000   0.3750000), wk =   0.0625000
        k(   27) = (   0.3750000  -0.3750000  -0.3750000), wk =   0.0625000
        k(   28) = (   0.3750000  -0.3750000  -0.1250000), wk =   0.0625000
        k(   29) = (   0.3750000  -0.1250000   0.1250000), wk =   0.0625000
        k(   30) = (   0.3750000  -0.1250000   0.3750000), wk =   0.0625000
        k(   31) = (   0.3750000  -0.1250000  -0.3750000), wk =   0.0625000
        k(   32) = (   0.3750000  -0.1250000  -0.1250000), wk =   0.0625000

     Check: negative core charge=   -0.000075

     Initial potential from superposition of free atoms

     starting charge      31.9955, renormalised to      32.0000
     Starting wfcs are random

     Self-consistent Calculation

     iteration #  1     ecut=    15.00 Ry     beta= 0.50
     CG style diagonalization
     ethr =  1.00E-02,  avg # of iterations =  9.3

     Threshold (ethr) on eigenvalues was too large:
     Diagonalizing with lowered threshold

     CG style diagonalization
     c_bands:  2 eigenvalues not converged
     c_bands:  1 eigenvalues not converged
     c_bands:  1 eigenvalues not converged
     c_bands:  1 eigenvalues not converged
     c_bands:  2 eigenvalues not converged
     c_bands:  1 eigenvalues not converged
     ethr =  6.75E-04,  avg # of iterations =  6.0

     total energy              =     -91.33652436 Ry
     estimated scf accuracy    <       0.22340159 Ry

[...]

     iteration #  4     ecut=    15.00 Ry     beta= 0.50
     CG style diagonalization
     c_bands:  2 eigenvalues not converged
     c_bands:  1 eigenvalues not converged
     c_bands:  1 eigenvalues not converged
     c_bands:  2 eigenvalues not converged
     c_bands:  1 eigenvalues not converged
     c_bands:  3 eigenvalues not converged
     c_bands:  1 eigenvalues not converged
     c_bands:  1 eigenvalues not converged
     c_bands:  2 eigenvalues not converged
     c_bands:  1 eigenvalues not converged
     ethr =  3.30E-06,  avg # of iterations =  6.6

[...]

     iteration #  6     ecut=    15.00 Ry     beta= 0.50
     CG style diagonalization
     c_bands:  1 eigenvalues not converged
     c_bands:  1 eigenvalues not converged
     c_bands:  1 eigenvalues not converged
     ethr =  2.09E-07,  avg # of iterations =  3.7

[...]

     total energy              =     -91.34530883 Ry
     estimated scf accuracy    <          1.1E-09 Ry

     iteration # 11     ecut=    15.00 Ry     beta= 0.50
     CG style diagonalization
     ethr =  3.54E-12,  avg # of iterations =  3.3

     End of self-consistent calculation

          k = 0.1250 0.1250 0.1250 (  1060 PWs)   bands (ev):

    -5.5394  -2.4521  -2.4509  -2.4509  -0.6113  -0.6106  -0.6106   2.7818
     2.7835   2.7835   3.5351   3.5351   3.5372   4.6320   5.9468   5.9468
     7.1477   7.1477   7.1485   8.2249   8.2249   8.2251   8.7457   9.2354
     9.2354  10.9475  13.5828  13.5830  14.5690  14.5713  14.5737  14.6444

[...]

          k = 0.3750-0.1250-0.1250 (  1065 PWs)   bands (ev):

    -5.0022  -3.9517  -2.2748  -2.2740  -0.7131  -0.7127   1.2812   2.1579
     2.1588   3.0002   3.2598   3.2610   3.5516   4.0136   4.9086   4.9870
     7.6020   8.3974   8.6484   8.6484   9.1616   9.9548  10.5597  10.5600
    10.7268  11.0309  11.5450  11.5453  12.2710  12.5552  13.7203  13.7216

     highest occupied, lowest unoccupied level (ev):     5.9468    7.1477

!    total energy              =     -91.34530883 Ry
     estimated scf accuracy    <          2.5E-12 Ry

     The total energy is the sum of the following terms:
     one-electron contribution =      20.70972437 Ry
     hartree contribution      =       4.39861353 Ry
     xc contribution           =     -49.24992842 Ry
     ewald contribution        =     -67.20371830 Ry

     convergence has been achieved in  11 iterations

     Forces acting on atoms (cartesian axes, Ry/au):

     atom    1 type  1   force =     0.00000001   -0.00000003    0.00000001
     atom    2 type  1   force =    -0.00000003   -0.00000003    0.00000000
     atom    3 type  1   force =     0.00000005   -0.00000001   -0.00000000
     atom    4 type  1   force =    -0.00000001    0.00000001   -0.00000002
     atom    5 type  1   force =    -0.00007048   -0.00007049   -0.00007052
     atom    6 type  1   force =     0.00007050    0.00007054   -0.00007054
     atom    7 type  1   force =     0.00007050   -0.00007052    0.00007055
     atom    8 type  1   force =    -0.00007053    0.00007054    0.00007052
     The non-local contrib.  to forces
     atom    1 type  1   force =    -0.00000002   -0.00000008    0.00000001
     atom    2 type  1   force =    -0.00000003   -0.00000000    0.00000003
     atom    3 type  1   force =     0.00000001   -0.00000005    0.00000007
     atom    4 type  1   force =    -0.00000002   -0.00000004    0.00000013
     atom    5 type  1   force =    -0.00045882   -0.00045877   -0.00045886
     atom    6 type  1   force =     0.00045882    0.00045883   -0.00045894
     atom    7 type  1   force =     0.00045889   -0.00045871    0.00045883
     atom    8 type  1   force =    -0.00045884    0.00045890    0.00045879
     The ionic contribution  to forces
     atom    1 type  1   force =    -0.00000000   -0.00000000   -0.00000000
     atom    2 type  1   force =     0.00000000    0.00000000   -0.00000000
     atom    3 type  1   force =    -0.00000000    0.00000000   -0.00000000
     atom    4 type  1   force =     0.00000000   -0.00000000   -0.00000000
     atom    5 type  1   force =    -0.00000000   -0.00000000   -0.00000000
     atom    6 type  1   force =     0.00000000    0.00000000    0.00000000
     atom    7 type  1   force =     0.00000000    0.00000000    0.00000000
     atom    8 type  1   force =     0.00000000    0.00000000    0.00000000
     The local contribution  to forces
     atom    1 type  1   force =     0.00000029    0.00000007    0.00000032
     atom    2 type  1   force =    -0.00000027    0.00000013    0.00000022
     atom    3 type  1   force =     0.00000031    0.00000026   -0.00000041
     atom    4 type  1   force =    -0.00000019    0.00000006   -0.00000050
     atom    5 type  1   force =    -0.00028297   -0.00028361   -0.00028327
     atom    6 type  1   force =     0.00028298    0.00028343   -0.00028316
     atom    7 type  1   force =     0.00028286   -0.00028369    0.00028346
     atom    8 type  1   force =    -0.00028303    0.00028327    0.00028345
     The core correction contribution to forces
     atom    1 type  1   force =     0.00000000    0.00000001   -0.00000000
     atom    2 type  1   force =     0.00000000   -0.00000000   -0.00000000
     atom    3 type  1   force =     0.00000000    0.00000001   -0.00000001
     atom    4 type  1   force =    -0.00000000    0.00000001   -0.00000002
     atom    5 type  1   force =     0.00067148    0.00067148    0.00067149
     atom    6 type  1   force =    -0.00067149   -0.00067149    0.00067150
     atom    7 type  1   force =    -0.00067149    0.00067147   -0.00067148
     atom    8 type  1   force =     0.00067149   -0.00067149   -0.00067148
     The Hubbard contrib.    to forces
     atom    1 type  1   force =     0.00000000    0.00000000    0.00000000
     atom    2 type  1   force =     0.00000000    0.00000000    0.00000000
     atom    3 type  1   force =     0.00000000    0.00000000    0.00000000
     atom    4 type  1   force =     0.00000000    0.00000000    0.00000000
     atom    5 type  1   force =     0.00000000    0.00000000    0.00000000
     atom    6 type  1   force =     0.00000000    0.00000000    0.00000000
     atom    7 type  1   force =     0.00000000    0.00000000    0.00000000
     atom    8 type  1   force =     0.00000000    0.00000000    0.00000000
     The SCF correction term to forces
     atom    1 type  1   force =    -0.00000027   -0.00000002   -0.00000031
     atom    2 type  1   force =     0.00000027   -0.00000016   -0.00000023
     atom    3 type  1   force =    -0.00000027   -0.00000023    0.00000037
     atom    4 type  1   force =     0.00000020   -0.00000002    0.00000039
     atom    5 type  1   force =    -0.00000018    0.00000041    0.00000014
     atom    6 type  1   force =     0.00000018   -0.00000023    0.00000007
     atom    7 type  1   force =     0.00000024    0.00000041   -0.00000024
     atom    8 type  1   force =    -0.00000015   -0.00000014   -0.00000023

     Total force =     0.000244     Total SCF correction =     0.000001

     Writing all to output data dir ./output/si.save/

     General routines

     Parallel routines

   This run was terminated on:  13:48:38   2Jun2023

   JOB DONE.